132
100
38
27
21
18
19
35
10
1
23
14
13
4
48
37
9
7
25
45
25
22
44
26
47
48
2
30
32
32
13
25
4
7
29
50
25
35
7
4
10
30
24
4
46
2
32
38
3
1
25
21
33
33
16
23
24
48
15
11
34
12
24
11
6
8
8
49
22
16
14
41
5
21
13
9
27
3
43
39
11
2
33
35
17
16
3
8
3
13
14
3
50
26
40
11
5
43
12
35
37
20
4
14
36
45
50
48
6
41
25
5
7
11
31
45
1
40
5
19
37
19
32
20
33
46
41
27
27
14
1
27
19
42
